column=9;
row=9;
left=[0, 0, 2, 0, 3, 4, 3, 5, 0];
right=[2, 4, 3, 3, 5, 3, 2, 1, 3];
top=[4, 3, 2, 3, 0, 4, 0, 1, 2];
bottom=[1, 0, 3, 0, 3, 2, 0, 5, 0];
Board=[|0,2,0,0,5,3,0,0,8|5,0,0,0,0,0,2,0,6|0,0,0,0,9,0,0,0,5|4,9,0,7,0,6,0,0,1|2,1,0,9,0,8,7,6,0|6,0,8,5,3,1,9,4,0|0,0,0,0,0,0,0,0,4|0,6,0,2,0,0,8,0,0|0,0,4,0,0,5,6,2,7|]